5 5
3 35 2 76 4 8 0 89 1 91
4 43 1 45 0 6 2 13 3 11
1 70 2 69 4 7 3 55 0 55
2 19 4 6 0 89 3 9 1 20
4 25 0 50 3 72 1 50 2 38
-1
0 2 4 5
0 1 5
0 3 5
0 3 4 5
0 1 3 4 5
-2
135 239 470
49 180
148 274
165 155 224
36 218 227 255

344 6
21 17 3 7 14
10 6 23 19 4
15 1 11 24 8
0 22 18 13 9
20 16 5 2 12
